c "660890.clq"
p edge 203 2992
e 1 17
e 1 18
e 1 19
e 1 20
e 1 21
e 1 22
e 1 23
e 1 24
e 1 25
e 1 26
e 1 28
e 1 31
e 1 32
e 1 33
e 1 35
e 1 36
e 1 46
e 1 48
e 1 50
e 1 52
e 1 59
e 1 61
e 1 62
e 1 64
e 1 68
e 1 71
e 1 72
e 1 79
e 1 80
e 1 86
e 1 94
e 1 96
e 1 104
e 1 116
e 1 121
e 1 122
e 1 145
e 1 148
e 1 154
e 1 156
e 1 160
e 1 161
e 1 163
e 1 174
e 1 193
e 1 194
e 2 17
e 2 18
e 2 19
e 2 20
e 2 21
e 2 22
e 2 23
e 2 24
e 2 26
e 2 27
e 2 29
e 2 31
e 2 33
e 2 34
e 2 35
e 2 36
e 2 39
e 2 40
e 2 42
e 2 43
e 2 49
e 2 52
e 2 63
e 2 68
e 2 69
e 2 70
e 2 87
e 2 90
e 2 96
e 2 106
e 2 110
e 2 111
e 2 114
e 2 121
e 2 122
e 2 128
e 2 138
e 2 145
e 2 151
e 2 155
e 2 170
e 2 173
e 2 181
e 2 184
e 2 188
e 2 198
e 2 202
e 3 17
e 3 18
e 3 19
e 3 21
e 3 22
e 3 23
e 3 25
e 3 28
e 3 33
e 3 38
e 3 45
e 3 54
e 3 55
e 3 57
e 3 61
e 3 63
e 3 64
e 3 65
e 3 68
e 3 70
e 3 73
e 3 75
e 3 80
e 3 81
e 3 94
e 3 124
e 3 127
e 3 130
e 3 137
e 3 143
e 3 156
e 3 162
e 3 187
e 3 198
e 4 17
e 4 18
e 4 19
e 4 20
e 4 21
e 4 26
e 4 27
e 4 29
e 4 30
e 4 33
e 4 34
e 4 35
e 4 41
e 4 43
e 4 46
e 4 48
e 4 54
e 4 55
e 4 59
e 4 64
e 4 72
e 4 73
e 4 74
e 4 80
e 4 81
e 4 84
e 4 85
e 4 92
e 4 93
e 4 103
e 4 108
e 4 124
e 4 126
e 4 127
e 4 148
e 4 149
e 4 151
e 4 153
e 4 164
e 4 170
e 4 171
e 4 172
e 4 183
e 4 191
e 4 202
e 5 17
e 5 18
e 5 19
e 5 20
e 5 21
e 5 25
e 5 26
e 5 28
e 5 30
e 5 31
e 5 34
e 5 36
e 5 37
e 5 38
e 5 42
e 5 45
e 5 49
e 5 53
e 5 56
e 5 67
e 5 75
e 5 79
e 5 83
e 5 84
e 5 85
e 5 91
e 5 96
e 5 99
e 5 112
e 5 121
e 5 129
e 5 130
e 5 134
e 5 146
e 5 148
e 5 156
e 5 179
e 5 184
e 6 17
e 6 20
e 6 34
e 6 35
e 7 17
e 7 18
e 7 19
e 7 20
e 7 22
e 7 23
e 7 24
e 7 26
e 7 27
e 7 28
e 7 32
e 7 33
e 7 34
e 7 39
e 7 40
e 7 41
e 7 52
e 7 53
e 7 56
e 7 58
e 7 63
e 7 64
e 7 68
e 7 72
e 7 86
e 7 99
e 7 123
e 7 144
e 7 150
e 7 157
e 7 179
e 7 182
e 7 186
e 7 192
e 7 195
e 8 17
e 8 18
e 8 19
e 8 20
e 8 21
e 8 23
e 8 24
e 8 25
e 8 26
e 8 29
e 8 41
e 8 47
e 8 49
e 8 52
e 8 55
e 8 58
e 8 59
e 8 60
e 8 61
e 8 68
e 8 70
e 8 72
e 8 75
e 8 76
e 8 82
e 8 95
e 8 118
e 8 127
e 8 129
e 8 136
e 8 138
e 8 143
e 8 159
e 8 175
e 8 189
e 8 191
e 8 194
e 8 196
e 9 17
e 9 18
e 9 19
e 9 20
e 9 21
e 9 22
e 9 23
e 9 24
e 9 25
e 9 26
e 9 27
e 9 29
e 9 30
e 9 31
e 9 36
e 9 37
e 9 43
e 9 49
e 9 54
e 9 55
e 9 59
e 9 61
e 9 63
e 9 81
e 9 82
e 9 87
e 9 88
e 9 92
e 9 96
e 9 97
e 9 100
e 9 101
e 9 105
e 9 108
e 9 109
e 9 110
e 9 120
e 9 123
e 9 131
e 9 134
e 9 135
e 9 146
e 9 150
e 9 152
e 9 162
e 9 164
e 9 167
e 9 180
e 10 17
e 10 18
e 10 19
e 10 20
e 10 22
e 10 23
e 10 24
e 10 26
e 10 27
e 10 28
e 10 29
e 10 36
e 10 38
e 10 39
e 10 40
e 10 57
e 10 59
e 10 78
e 10 90
e 10 98
e 10 102
e 10 103
e 10 110
e 10 112
e 10 118
e 10 127
e 10 135
e 10 144
e 10 151
e 10 158
e 10 162
e 10 170
e 10 199
e 11 17
e 11 18
e 11 19
e 11 20
e 11 21
e 11 22
e 11 23
e 11 24
e 11 25
e 11 28
e 11 29
e 11 31
e 11 32
e 11 34
e 11 40
e 11 42
e 11 44
e 11 50
e 11 52
e 11 58
e 11 69
e 11 83
e 11 87
e 11 93
e 11 98
e 11 103
e 11 113
e 11 114
e 11 115
e 11 137
e 11 144
e 11 169
e 11 187
e 12 17
e 12 18
e 12 19
e 12 20
e 12 21
e 12 22
e 12 23
e 12 24
e 12 25
e 12 26
e 12 27
e 12 29
e 12 30
e 12 31
e 12 34
e 12 35
e 12 36
e 12 37
e 12 38
e 12 39
e 12 44
e 12 45
e 12 47
e 12 51
e 12 54
e 12 58
e 12 60
e 12 61
e 12 66
e 12 69
e 12 70
e 12 75
e 12 79
e 12 80
e 12 82
e 12 83
e 12 86
e 12 87
e 12 89
e 12 90
e 12 99
e 12 103
e 12 105
e 12 107
e 12 109
e 12 111
e 12 112
e 12 113
e 12 118
e 12 133
e 12 135
e 12 140
e 12 144
e 12 145
e 12 154
e 12 155
e 12 159
e 12 171
e 12 183
e 12 189
e 12 200
e 12 201
e 13 17
e 13 18
e 13 19
e 13 20
e 13 21
e 13 22
e 13 30
e 13 32
e 13 33
e 13 41
e 13 46
e 13 52
e 13 66
e 13 74
e 13 78
e 13 94
e 13 95
e 13 97
e 13 113
e 13 116
e 13 128
e 13 152
e 14 17
e 14 18
e 14 19
e 14 20
e 14 21
e 14 24
e 14 26
e 14 27
e 14 29
e 14 31
e 14 32
e 14 36
e 14 40
e 14 42
e 14 44
e 14 47
e 14 48
e 14 70
e 14 76
e 14 92
e 14 109
e 14 118
e 14 120
e 14 127
e 14 128
e 14 142
e 14 161
e 14 169
e 14 171
e 14 188
e 14 197
e 14 198
e 15 17
e 15 18
e 15 22
e 15 25
e 15 27
e 15 29
e 15 30
e 15 32
e 15 39
e 15 44
e 15 51
e 15 56
e 15 64
e 15 74
e 15 91
e 15 107
e 15 116
e 15 121
e 15 179
e 15 183
e 15 193
e 15 201
e 16 17
e 16 18
e 16 19
e 16 21
e 16 22
e 16 23
e 16 24
e 16 25
e 16 26
e 16 27
e 16 30
e 16 32
e 16 34
e 16 37
e 16 38
e 16 41
e 16 45
e 16 47
e 16 48
e 16 50
e 16 55
e 16 56
e 16 58
e 16 62
e 16 77
e 16 82
e 16 89
e 16 93
e 16 96
e 16 97
e 16 98
e 16 125
e 16 146
e 16 147
e 16 153
e 16 154
e 16 157
e 16 189
e 16 191
e 17 18
e 17 19
e 17 20
e 17 21
e 17 22
e 17 23
e 17 24
e 17 25
e 17 26
e 17 27
e 17 28
e 17 29
e 17 32
e 17 34
e 17 35
e 17 36
e 17 39
e 17 40
e 17 41
e 17 43
e 17 44
e 17 46
e 17 47
e 17 48
e 17 49
e 17 51
e 17 52
e 17 53
e 17 54
e 17 55
e 17 57
e 17 58
e 17 59
e 17 60
e 17 61
e 17 63
e 17 64
e 17 65
e 17 66
e 17 67
e 17 69
e 17 71
e 17 72
e 17 74
e 17 75
e 17 76
e 17 77
e 17 78
e 17 79
e 17 82
e 17 84
e 17 91
e 17 93
e 17 94
e 17 96
e 17 99
e 17 102
e 17 109
e 17 116
e 17 119
e 17 120
e 17 122
e 17 124
e 17 126
e 17 127
e 17 129
e 17 132
e 17 136
e 17 137
e 17 138
e 17 145
e 17 155
e 17 156
e 17 162
e 17 163
e 17 164
e 17 166
e 17 171
e 17 172
e 17 173
e 17 176
e 17 180
e 17 184
e 17 185
e 17 190
e 17 202
e 18 19
e 18 20
e 18 21
e 18 22
e 18 23
e 18 24
e 18 25
e 18 26
e 18 27
e 18 28
e 18 29
e 18 31
e 18 33
e 18 34
e 18 35
e 18 36
e 18 37
e 18 38
e 18 39
e 18 40
e 18 44
e 18 45
e 18 46
e 18 48
e 18 49
e 18 50
e 18 51
e 18 53
e 18 54
e 18 55
e 18 56
e 18 57
e 18 58
e 18 60
e 18 68
e 18 71
e 18 76
e 18 79
e 18 83
e 18 85
e 18 86
e 18 87
e 18 88
e 18 90
e 18 96
e 18 97
e 18 101
e 18 103
e 18 106
e 18 110
e 18 113
e 18 117
e 18 118
e 18 122
e 18 131
e 18 133
e 18 136
e 18 138
e 18 140
e 18 143
e 18 144
e 18 149
e 18 150
e 18 153
e 18 155
e 18 156
e 18 160
e 18 163
e 18 166
e 18 167
e 18 171
e 18 177
e 18 178
e 18 185
e 18 186
e 18 187
e 18 188
e 18 190
e 18 193
e 18 197
e 18 200
e 19 20
e 19 21
e 19 22
e 19 23
e 19 24
e 19 25
e 19 27
e 19 28
e 19 29
e 19 30
e 19 31
e 19 32
e 19 33
e 19 34
e 19 35
e 19 36
e 19 37
e 19 38
e 19 39
e 19 40
e 19 41
e 19 42
e 19 45
e 19 46
e 19 47
e 19 49
e 19 51
e 19 53
e 19 56
e 19 58
e 19 59
e 19 61
e 19 65
e 19 67
e 19 69
e 19 71
e 19 72
e 19 75
e 19 76
e 19 77
e 19 78
e 19 79
e 19 81
e 19 85
e 19 86
e 19 87
e 19 89
e 19 94
e 19 97
e 19 98
e 19 105
e 19 107
e 19 109
e 19 110
e 19 112
e 19 117
e 19 118
e 19 129
e 19 131
e 19 132
e 19 134
e 19 135
e 19 136
e 19 139
e 19 140
e 19 142
e 19 145
e 19 147
e 19 152
e 19 154
e 19 155
e 19 159
e 19 160
e 19 162
e 19 164
e 19 171
e 19 187
e 20 21
e 20 22
e 20 23
e 20 24
e 20 25
e 20 26
e 20 28
e 20 29
e 20 30
e 20 32
e 20 35
e 20 37
e 20 38
e 20 40
e 20 41
e 20 43
e 20 46
e 20 50
e 20 52
e 20 53
e 20 54
e 20 56
e 20 57
e 20 59
e 20 66
e 20 67
e 20 71
e 20 72
e 20 74
e 20 80
e 20 83
e 20 88
e 20 99
e 20 101
e 20 103
e 20 105
e 20 113
e 20 118
e 20 126
e 20 127
e 20 131
e 20 133
e 20 135
e 20 137
e 20 150
e 20 157
e 20 159
e 20 165
e 20 169
e 20 176
e 20 186
e 20 187
e 20 193
e 20 198
e 20 203
e 21 22
e 21 23
e 21 24
e 21 25
e 21 27
e 21 28
e 21 29
e 21 30
e 21 31
e 21 32
e 21 33
e 21 35
e 21 40
e 21 42
e 21 44
e 21 48
e 21 49
e 21 51
e 21 54
e 21 59
e 21 65
e 21 66
e 21 67
e 21 69
e 21 70
e 21 74
e 21 78
e 21 80
e 21 81
e 21 88
e 21 95
e 21 100
e 21 104
e 21 122
e 21 124
e 21 129
e 21 140
e 21 159
e 21 171
e 21 173
e 21 175
e 21 179
e 21 187
e 22 23
e 22 25
e 22 28
e 22 31
e 22 32
e 22 33
e 22 37
e 22 39
e 22 40
e 22 41
e 22 45
e 22 46
e 22 48
e 22 52
e 22 53
e 22 61
e 22 63
e 22 65
e 22 70
e 22 78
e 22 82
e 22 83
e 22 85
e 22 91
e 22 95
e 22 97
e 22 101
e 22 103
e 22 104
e 22 106
e 22 108
e 22 112
e 22 113
e 22 118
e 22 134
e 22 135
e 22 137
e 22 138
e 22 141
e 22 155
e 22 157
e 22 158
e 22 163
e 22 169
e 22 170
e 22 178
e 22 182
e 22 188
e 22 192
e 22 194
e 22 196
e 22 201
e 23 24
e 23 26
e 23 27
e 23 28
e 23 29
e 23 30
e 23 31
e 23 32
e 23 33
e 23 35
e 23 38
e 23 39
e 23 40
e 23 41
e 23 42
e 23 43
e 23 46
e 23 47
e 23 51
e 23 52
e 23 54
e 23 57
e 23 61
e 23 63
e 23 65
e 23 67
e 23 72
e 23 74
e 23 79
e 23 80
e 23 81
e 23 84
e 23 88
e 23 89
e 23 94
e 23 96
e 23 98
e 23 99
e 23 100
e 23 104
e 23 108
e 23 112
e 23 114
e 23 118
e 23 121
e 23 133
e 23 134
e 23 138
e 23 142
e 23 154
e 23 167
e 23 170
e 23 174
e 23 177
e 23 180
e 23 181
e 23 183
e 23 185
e 23 195
e 23 199
e 23 200
e 24 25
e 24 26
e 24 27
e 24 31
e 24 32
e 24 33
e 24 35
e 24 37
e 24 39
e 24 41
e 24 42
e 24 44
e 24 45
e 24 47
e 24 49
e 24 52
e 24 57
e 24 60
e 24 62
e 24 63
e 24 67
e 24 77
e 24 79
e 24 82
e 24 84
e 24 86
e 24 94
e 24 95
e 24 100
e 24 102
e 24 103
e 24 106
e 24 114
e 24 116
e 24 119
e 24 120
e 24 121
e 24 122
e 24 125
e 24 128
e 24 130
e 24 138
e 24 143
e 24 146
e 24 152
e 24 168
e 24 170
e 24 174
e 24 175
e 24 183
e 24 188
e 24 200
e 24 202
e 25 28
e 25 30
e 25 31
e 25 36
e 25 37
e 25 39
e 25 44
e 25 48
e 25 50
e 25 52
e 25 54
e 25 58
e 25 60
e 25 68
e 25 69
e 25 76
e 25 77
e 25 79
e 25 81
e 25 84
e 25 94
e 25 97
e 25 101
e 25 110
e 25 116
e 25 117
e 25 122
e 25 125
e 25 135
e 25 137
e 25 159
e 25 164
e 25 171
e 25 178
e 25 180
e 25 184
e 25 186
e 25 199
e 25 202
e 26 27
e 26 28
e 26 30
e 26 31
e 26 32
e 26 33
e 26 34
e 26 35
e 26 36
e 26 37
e 26 38
e 26 42
e 26 43
e 26 44
e 26 45
e 26 46
e 26 47
e 26 50
e 26 51
e 26 52
e 26 55
e 26 60
e 26 61
e 26 63
e 26 65
e 26 67
e 26 70
e 26 73
e 26 80
e 26 88
e 26 90
e 26 97
e 26 98
e 26 99
e 26 108
e 26 115
e 26 118
e 26 123
e 26 125
e 26 133
e 26 136
e 26 157
e 26 158
e 26 162
e 26 165
e 26 166
e 26 168
e 26 174
e 26 182
e 26 185
e 27 28
e 27 30
e 27 34
e 27 36
e 27 37
e 27 38
e 27 39
e 27 42
e 27 43
e 27 47
e 27 49
e 27 51
e 27 53
e 27 56
e 27 66
e 27 70
e 27 71
e 27 72
e 27 81
e 27 83
e 27 84
e 27 87
e 27 91
e 27 92
e 27 96
e 27 102
e 27 105
e 27 112
e 27 114
e 27 117
e 27 129
e 27 132
e 27 133
e 27 136
e 27 137
e 27 138
e 27 140
e 27 148
e 27 172
e 27 173
e 27 176
e 27 183
e 27 185
e 27 187
e 27 191
e 27 198
e 28 29
e 28 30
e 28 33
e 28 34
e 28 35
e 28 36
e 28 37
e 28 41
e 28 45
e 28 47
e 28 48
e 28 50
e 28 51
e 28 53
e 28 55
e 28 58
e 28 62
e 28 63
e 28 65
e 28 74
e 28 80
e 28 81
e 28 82
e 28 92
e 28 93
e 28 96
e 28 102
e 28 104
e 28 105
e 28 107
e 28 110
e 28 111
e 28 113
e 28 117
e 28 118
e 28 119
e 28 123
e 28 126
e 28 128
e 28 132
e 28 135
e 28 150
e 28 153
e 28 154
e 28 155
e 28 159
e 28 160
e 28 165
e 28 166
e 28 176
e 28 181
e 28 182
e 28 184
e 28 189
e 28 190
e 28 196
e 28 197
e 28 198
e 28 202
e 29 30
e 29 31
e 29 35
e 29 36
e 29 37
e 29 40
e 29 43
e 29 44
e 29 46
e 29 53
e 29 59
e 29 64
e 29 66
e 29 70
e 29 72
e 29 79
e 29 81
e 29 85
e 29 88
e 29 90
e 29 91
e 29 95
e 29 105
e 29 109
e 29 111
e 29 113
e 29 115
e 29 117
e 29 123
e 29 124
e 29 132
e 29 138
e 29 140
e 29 141
e 29 145
e 29 156
e 29 161
e 29 169
e 29 176
e 29 189
e 29 191
e 29 196
e 29 201
e 30 33
e 30 34
e 30 38
e 30 40
e 30 41
e 30 42
e 30 43
e 30 45
e 30 46
e 30 47
e 30 50
e 30 55
e 30 56
e 30 57
e 30 63
e 30 65
e 30 66
e 30 70
e 30 71
e 30 73
e 30 75
e 30 78
e 30 81
e 30 86
e 30 87
e 30 93
e 30 102
e 30 103
e 30 104
e 30 105
e 30 107
e 30 111
e 30 112
e 30 117
e 30 119
e 30 123
e 30 133
e 30 137
e 30 138
e 30 142
e 30 143
e 30 146
e 30 149
e 30 151
e 30 185
e 30 186
e 30 203
e 31 32
e 31 36
e 31 37
e 31 38
e 31 39
e 31 41
e 31 44
e 31 48
e 31 49
e 31 51
e 31 52
e 31 56
e 31 58
e 31 64
e 31 65
e 31 66
e 31 69
e 31 70
e 31 84
e 31 85
e 31 87
e 31 88
e 31 97
e 31 101
e 31 107
e 31 116
e 31 118
e 31 128
e 31 133
e 31 135
e 31 140
e 31 141
e 31 152
e 31 158
e 31 163
e 31 166
e 31 170
e 31 171
e 31 183
e 31 203
e 32 33
e 32 34
e 32 43
e 32 48
e 32 49
e 32 51
e 32 56
e 32 57
e 32 62
e 32 66
e 32 67
e 32 72
e 32 73
e 32 74
e 32 78
e 32 80
e 32 82
e 32 88
e 32 90
e 32 91
e 32 98
e 32 114
e 32 117
e 32 131
e 32 139
e 32 145
e 32 152
e 32 153
e 32 158
e 32 159
e 32 160
e 32 162
e 32 164
e 32 165
e 32 166
e 32 176
e 32 178
e 32 195
e 32 200
e 33 35
e 33 38
e 33 39
e 33 42
e 33 44
e 33 48
e 33 49
e 33 60
e 33 64
e 33 76
e 33 78
e 33 84
e 33 90
e 33 92
e 33 102
e 33 105
e 33 110
e 33 112
e 33 114
e 33 115
e 33 119
e 33 127
e 33 130
e 33 134
e 33 143
e 33 147
e 33 161
e 33 167
e 33 172
e 33 174
e 33 175
e 33 176
e 33 181
e 33 185
e 34 38
e 34 43
e 34 45
e 34 62
e 34 63
e 34 64
e 34 73
e 34 75
e 34 76
e 34 80
e 34 87
e 34 88
e 34 99
e 34 101
e 34 115
e 34 133
e 34 150
e 34 162
e 34 168
e 34 173
e 34 180
e 34 195
e 34 203
e 35 37
e 35 41
e 35 42
e 35 43
e 35 46
e 35 47
e 35 56
e 35 57
e 35 58
e 35 62
e 35 66
e 35 71
e 35 73
e 35 78
e 35 81
e 35 83
e 35 88
e 35 95
e 35 102
e 35 105
e 35 106
e 35 108
e 35 112
e 35 113
e 35 117
e 35 122
e 35 129
e 35 137
e 35 147
e 35 150
e 35 157
e 35 163
e 35 169
e 35 177
e 35 178
e 35 184
e 35 201
e 36 38
e 36 40
e 36 42
e 36 45
e 36 50
e 36 53
e 36 58
e 36 62
e 36 64
e 36 66
e 36 68
e 36 70
e 36 73
e 36 85
e 36 91
e 36 98
e 36 110
e 36 120
e 36 146
e 36 152
e 36 164
e 36 165
e 36 167
e 36 190
e 36 191
e 36 195
e 36 201
e 37 41
e 37 42
e 37 46
e 37 53
e 37 54
e 37 57
e 37 64
e 37 71
e 37 74
e 37 75
e 37 77
e 37 85
e 37 86
e 37 105
e 37 107
e 37 113
e 37 127
e 37 136
e 37 138
e 37 141
e 37 151
e 37 169
e 37 179
e 37 180
e 37 181
e 37 188
e 37 189
e 37 201
e 38 39
e 38 40
e 38 44
e 38 47
e 38 49
e 38 50
e 38 51
e 38 54
e 38 55
e 38 60
e 38 61
e 38 62
e 38 67
e 38 76
e 38 77
e 38 82
e 38 85
e 38 92
e 38 94
e 38 95
e 38 98
e 38 99
e 38 100
e 38 103
e 38 106
e 38 108
e 38 114
e 38 125
e 38 137
e 38 139
e 38 148
e 38 151
e 38 161
e 38 165
e 38 171
e 38 176
e 38 177
e 38 186
e 38 187
e 38 192
e 38 193
e 38 194
e 38 196
e 39 42
e 39 44
e 39 46
e 39 54
e 39 55
e 39 60
e 39 63
e 39 72
e 39 75
e 39 77
e 39 82
e 39 88
e 39 89
e 39 90
e 39 91
e 39 97
e 39 117
e 39 120
e 39 132
e 39 134
e 39 138
e 39 142
e 39 157
e 39 169
e 39 174
e 39 177
e 39 185
e 39 186
e 39 188
e 39 197
e 39 199
e 39 203
e 40 43
e 40 45
e 40 48
e 40 49
e 40 50
e 40 55
e 40 56
e 40 59
e 40 71
e 40 83
e 40 84
e 40 86
e 40 100
e 40 111
e 40 113
e 40 114
e 40 115
e 40 116
e 40 117
e 40 129
e 40 134
e 40 135
e 40 144
e 40 146
e 40 152
e 40 171
e 40 172
e 40 175
e 40 177
e 40 179
e 40 185
e 40 187
e 41 43
e 41 45
e 41 51
e 41 53
e 41 57
e 41 66
e 41 69
e 41 76
e 41 84
e 41 92
e 41 93
e 41 99
e 41 101
e 41 115
e 41 163
e 41 172
e 41 179
e 41 200
e 42 43
e 42 44
e 42 45
e 42 47
e 42 48
e 42 53
e 42 57
e 42 60
e 42 68
e 42 73
e 42 75
e 42 76
e 42 77
e 42 78
e 42 100
e 42 106
e 42 108
e 42 109
e 42 119
e 42 124
e 42 130
e 42 134
e 42 137
e 42 139
e 42 141
e 42 148
e 42 150
e 42 155
e 42 168
e 42 172
e 42 176
e 42 191
e 42 199
e 42 203
e 43 50
e 43 52
e 43 53
e 43 58
e 43 62
e 43 82
e 43 84
e 43 87
e 43 89
e 43 92
e 43 94
e 43 95
e 43 97
e 43 100
e 43 102
e 43 110
e 43 113
e 43 117
e 43 122
e 43 152
e 43 153
e 43 155
e 43 168
e 43 182
e 43 191
e 44 49
e 44 50
e 44 55
e 44 60
e 44 62
e 44 64
e 44 65
e 44 66
e 44 71
e 44 76
e 44 89
e 44 93
e 44 94
e 44 98
e 44 101
e 44 102
e 44 106
e 44 114
e 44 119
e 44 139
e 44 142
e 44 151
e 44 153
e 44 166
e 44 173
e 44 186
e 44 194
e 45 46
e 45 47
e 45 51
e 45 52
e 45 54
e 45 59
e 45 62
e 45 65
e 45 67
e 45 68
e 45 77
e 45 78
e 45 80
e 45 83
e 45 85
e 45 90
e 45 96
e 45 102
e 45 104
e 45 105
e 45 112
e 45 114
e 45 116
e 45 122
e 45 127
e 45 130
e 45 131
e 45 134
e 45 135
e 45 139
e 45 164
e 45 171
e 45 173
e 45 175
e 45 183
e 45 191
e 45 194
e 45 195
e 45 199
e 46 50
e 46 56
e 46 60
e 46 62
e 46 71
e 46 75
e 46 86
e 46 88
e 46 90
e 46 96
e 46 108
e 46 109
e 46 111
e 46 129
e 46 130
e 46 133
e 46 143
e 46 147
e 46 151
e 46 196
e 47 48
e 47 51
e 47 60
e 47 65
e 47 71
e 47 93
e 47 94
e 47 98
e 47 102
e 47 107
e 47 122
e 47 139
e 47 149
e 47 153
e 47 176
e 47 180
e 47 182
e 47 192
e 48 55
e 48 59
e 48 67
e 48 68
e 48 69
e 48 71
e 48 83
e 48 89
e 48 94
e 48 97
e 48 111
e 48 118
e 48 121
e 48 125
e 48 184
e 49 50
e 49 53
e 49 55
e 49 56
e 49 58
e 49 61
e 49 67
e 49 68
e 49 92
e 49 99
e 49 100
e 49 102
e 49 103
e 49 109
e 49 110
e 49 115
e 49 127
e 49 133
e 49 141
e 49 159
e 49 161
e 49 164
e 49 191
e 49 192
e 50 59
e 50 62
e 50 72
e 50 77
e 50 87
e 50 90
e 50 99
e 50 103
e 50 111
e 50 122
e 50 131
e 50 141
e 50 144
e 50 147
e 50 151
e 50 157
e 50 170
e 50 172
e 50 178
e 50 179
e 50 181
e 50 188
e 50 195
e 51 54
e 51 56
e 51 57
e 51 64
e 51 68
e 51 74
e 51 78
e 51 86
e 51 101
e 51 118
e 51 123
e 51 132
e 51 139
e 51 143
e 51 147
e 51 199
e 52 59
e 52 61
e 52 63
e 52 65
e 52 68
e 52 73
e 52 74
e 52 75
e 52 81
e 52 84
e 52 95
e 52 101
e 52 107
e 52 125
e 52 140
e 52 175
e 53 54
e 53 64
e 53 76
e 53 79
e 53 83
e 53 107
e 53 108
e 53 112
e 53 116
e 53 123
e 53 140
e 53 142
e 53 144
e 53 183
e 53 193
e 53 196
e 54 57
e 54 61
e 54 66
e 54 69
e 54 77
e 54 79
e 54 91
e 54 92
e 54 96
e 54 104
e 54 111
e 54 116
e 54 121
e 54 128
e 54 136
e 54 149
e 54 152
e 54 171
e 54 188
e 54 194
e 54 199
e 55 62
e 55 70
e 55 72
e 55 73
e 55 74
e 55 75
e 55 80
e 55 82
e 55 85
e 55 86
e 55 87
e 55 102
e 55 110
e 55 124
e 55 133
e 55 139
e 55 144
e 55 149
e 55 161
e 55 163
e 55 176
e 55 184
e 55 194
e 56 57
e 56 60
e 56 63
e 56 81
e 56 91
e 56 100
e 56 102
e 56 106
e 56 107
e 56 110
e 56 124
e 56 126
e 56 128
e 56 131
e 56 135
e 56 136
e 56 144
e 56 165
e 56 166
e 57 58
e 57 67
e 57 69
e 57 78
e 57 79
e 57 80
e 57 97
e 57 108
e 57 109
e 57 113
e 57 115
e 57 126
e 57 137
e 57 148
e 57 150
e 57 157
e 57 170
e 57 172
e 57 174
e 57 175
e 57 186
e 57 189
e 58 59
e 58 60
e 58 61
e 58 62
e 58 72
e 58 73
e 58 74
e 58 92
e 58 95
e 58 103
e 58 106
e 58 111
e 58 118
e 58 119
e 58 120
e 58 128
e 58 138
e 58 156
e 58 158
e 58 165
e 58 166
e 58 167
e 58 197
e 59 69
e 59 77
e 59 83
e 59 91
e 59 114
e 59 124
e 59 127
e 59 128
e 59 140
e 59 147
e 59 151
e 59 164
e 59 174
e 59 179
e 59 180
e 60 61
e 60 63
e 60 70
e 60 76
e 60 77
e 60 81
e 60 82
e 60 83
e 60 95
e 60 104
e 60 106
e 60 109
e 60 120
e 60 131
e 60 139
e 60 140
e 60 157
e 60 168
e 60 179
e 60 185
e 61 65
e 61 66
e 61 68
e 61 69
e 61 73
e 61 90
e 61 93
e 61 137
e 61 147
e 61 148
e 61 150
e 61 151
e 61 152
e 61 158
e 61 168
e 61 177
e 61 178
e 61 182
e 61 195
e 61 196
e 61 199
e 62 67
e 62 70
e 62 73
e 62 84
e 62 89
e 62 119
e 62 129
e 62 130
e 62 146
e 62 157
e 62 190
e 62 194
e 62 195
e 63 64
e 63 68
e 63 71
e 63 77
e 63 83
e 63 89
e 63 92
e 63 102
e 63 121
e 63 123
e 63 130
e 63 142
e 63 143
e 63 146
e 63 150
e 63 162
e 63 199
e 64 65
e 64 74
e 64 75
e 64 79
e 64 80
e 64 83
e 64 94
e 64 100
e 64 105
e 64 115
e 64 117
e 64 125
e 64 138
e 64 144
e 64 151
e 64 154
e 64 159
e 64 161
e 64 162
e 64 165
e 64 176
e 64 200
e 65 69
e 65 89
e 65 93
e 65 101
e 65 105
e 65 109
e 65 118
e 65 123
e 65 126
e 65 130
e 65 136
e 65 143
e 65 149
e 65 167
e 65 168
e 65 182
e 65 185
e 65 201
e 66 67
e 66 69
e 66 75
e 66 82
e 66 109
e 66 128
e 66 136
e 66 141
e 66 168
e 66 197
e 67 92
e 67 97
e 67 100
e 67 104
e 67 105
e 67 110
e 67 112
e 67 115
e 67 116
e 67 125
e 67 129
e 67 131
e 67 147
e 67 149
e 67 150
e 67 155
e 67 156
e 67 160
e 67 163
e 67 167
e 67 172
e 67 187
e 67 190
e 67 203
e 68 74
e 68 84
e 68 107
e 68 120
e 68 122
e 68 149
e 68 189
e 68 191
e 69 71
e 69 72
e 69 73
e 69 80
e 69 91
e 69 93
e 69 95
e 69 98
e 69 100
e 69 126
e 69 142
e 69 146
e 69 156
e 69 160
e 69 169
e 69 171
e 69 186
e 69 188
e 69 199
e 69 202
e 70 85
e 70 89
e 70 94
e 70 131
e 70 154
e 70 158
e 70 160
e 70 197
e 70 201
e 70 202
e 71 73
e 71 97
e 71 126
e 71 127
e 71 128
e 71 132
e 71 141
e 71 164
e 71 172
e 71 177
e 71 194
e 72 76
e 72 85
e 72 87
e 72 95
e 72 104
e 72 112
e 72 125
e 72 128
e 72 136
e 72 148
e 72 155
e 72 160
e 72 164
e 72 178
e 72 184
e 72 185
e 73 78
e 73 79
e 73 93
e 73 100
e 73 111
e 73 132
e 73 143
e 73 145
e 73 183
e 73 187
e 74 76
e 74 81
e 74 87
e 74 108
e 74 110
e 74 119
e 74 122
e 74 123
e 74 125
e 74 126
e 74 143
e 74 147
e 74 150
e 74 154
e 74 156
e 74 162
e 74 165
e 74 181
e 74 188
e 75 79
e 75 82
e 75 90
e 75 91
e 75 92
e 75 96
e 75 99
e 75 100
e 75 101
e 75 108
e 75 120
e 75 133
e 75 144
e 75 182
e 75 186
e 75 190
e 75 200
e 76 77
e 76 78
e 76 85
e 76 88
e 76 115
e 76 120
e 76 121
e 76 151
e 76 153
e 76 154
e 76 163
e 76 173
e 76 192
e 77 86
e 77 93
e 77 104
e 77 114
e 77 129
e 77 130
e 77 133
e 77 142
e 77 143
e 77 144
e 77 147
e 77 158
e 77 159
e 77 161
e 77 178
e 77 184
e 77 190
e 78 103
e 78 106
e 78 134
e 78 140
e 78 162
e 78 177
e 79 91
e 79 108
e 79 116
e 79 152
e 79 171
e 79 196
e 80 89
e 80 113
e 80 119
e 80 129
e 80 131
e 80 146
e 80 149
e 80 166
e 80 192
e 80 198
e 81 84
e 81 86
e 81 89
e 81 90
e 81 95
e 81 106
e 81 135
e 81 141
e 81 153
e 81 154
e 81 162
e 81 163
e 81 168
e 81 182
e 81 187
e 81 191
e 81 195
e 81 200
e 82 86
e 82 89
e 82 96
e 82 97
e 82 106
e 82 121
e 82 123
e 82 124
e 82 130
e 82 131
e 82 140
e 82 156
e 82 179
e 82 188
e 83 88
e 83 93
e 83 98
e 83 101
e 83 108
e 83 109
e 83 112
e 83 125
e 83 135
e 83 136
e 83 166
e 84 85
e 84 87
e 84 88
e 84 90
e 84 95
e 84 107
e 84 121
e 84 130
e 84 131
e 84 142
e 84 145
e 84 157
e 84 174
e 84 194
e 85 86
e 85 104
e 85 115
e 85 120
e 85 123
e 85 127
e 85 145
e 85 149
e 85 155
e 85 161
e 85 167
e 85 191
e 85 192
e 85 197
e 85 198
e 85 200
e 86 112
e 86 114
e 86 124
e 86 146
e 86 191
e 86 193
e 86 202
e 87 93
e 87 96
e 87 98
e 87 104
e 87 107
e 87 126
e 87 135
e 87 143
e 87 153
e 87 157
e 87 164
e 87 174
e 88 89
e 88 91
e 88 94
e 88 104
e 88 106
e 88 107
e 88 115
e 88 120
e 88 126
e 88 129
e 88 140
e 88 143
e 88 161
e 88 175
e 88 176
e 88 197
e 88 203
e 89 111
e 89 117
e 89 149
e 89 165
e 89 174
e 89 184
e 89 193
e 90 92
e 90 98
e 90 99
e 90 100
e 90 110
e 90 119
e 90 153
e 90 158
e 90 165
e 90 178
e 90 181
e 90 189
e 91 111
e 91 133
e 91 146
e 91 165
e 91 177
e 92 98
e 92 115
e 92 120
e 92 123
e 92 132
e 92 147
e 92 149
e 92 181
e 92 182
e 92 197
e 92 203
e 93 103
e 93 109
e 93 121
e 93 132
e 93 145
e 93 167
e 93 178
e 93 193
e 94 99
e 94 124
e 94 130
e 94 146
e 94 155
e 94 160
e 94 164
e 94 179
e 94 192
e 94 194
e 95 101
e 95 111
e 95 120
e 95 147
e 95 149
e 95 151
e 95 156
e 95 167
e 95 174
e 95 192
e 96 116
e 96 119
e 96 125
e 96 127
e 96 128
e 96 132
e 96 159
e 96 183
e 96 193
e 96 198
e 96 199
e 97 99
e 97 101
e 97 109
e 97 116
e 97 126
e 97 139
e 97 141
e 97 158
e 97 160
e 97 165
e 97 172
e 97 175
e 97 192
e 97 195
e 98 121
e 98 170
e 98 196
e 99 105
e 99 114
e 99 120
e 99 125
e 99 126
e 99 131
e 99 146
e 99 152
e 99 153
e 99 161
e 99 169
e 99 190
e 99 197
e 100 133
e 100 173
e 100 174
e 100 183
e 100 192
e 100 193
e 101 106
e 101 107
e 101 136
e 101 137
e 101 138
e 101 139
e 101 156
e 101 175
e 101 180
e 101 186
e 101 201
e 102 103
e 102 104
e 102 121
e 102 125
e 102 145
e 102 156
e 102 168
e 102 200
e 102 202
e 103 111
e 103 123
e 103 134
e 103 142
e 103 148
e 103 149
e 103 150
e 103 167
e 103 177
e 103 179
e 103 181
e 103 185
e 103 187
e 103 197
e 104 124
e 104 145
e 104 160
e 104 166
e 104 169
e 104 188
e 104 190
e 104 194
e 104 202
e 105 123
e 105 124
e 105 139
e 105 145
e 105 156
e 106 108
e 106 113
e 106 124
e 106 139
e 106 152
e 106 168
e 106 170
e 106 182
e 106 184
e 106 191
e 106 196
e 106 202
e 107 134
e 107 137
e 107 142
e 107 144
e 107 157
e 107 158
e 107 180
e 107 189
e 107 193
e 107 198
e 108 113
e 108 116
e 108 117
e 108 119
e 108 124
e 108 136
e 108 144
e 108 154
e 108 163
e 108 185
e 109 139
e 109 141
e 109 145
e 109 159
e 109 170
e 109 199
e 110 119
e 110 143
e 110 144
e 110 162
e 110 184
e 110 194
e 111 117
e 111 125
e 111 132
e 111 175
e 111 180
e 111 182
e 111 192
e 112 114
e 112 121
e 112 122
e 112 128
e 112 148
e 112 152
e 112 163
e 112 166
e 112 180
e 112 200
e 113 115
e 113 119
e 113 127
e 113 157
e 113 158
e 113 165
e 113 169
e 113 190
e 114 132
e 114 134
e 114 141
e 114 177
e 114 187
e 115 132
e 115 134
e 115 135
e 115 146
e 115 157
e 115 182
e 116 128
e 116 130
e 116 132
e 116 138
e 116 140
e 116 155
e 116 156
e 117 142
e 117 159
e 117 168
e 117 179
e 117 198
e 118 126
e 118 148
e 118 150
e 118 153
e 118 168
e 118 192
e 119 126
e 119 130
e 120 122
e 120 129
e 120 154
e 120 175
e 120 192
e 120 201
e 120 202
e 121 142
e 121 161
e 121 166
e 121 173
e 121 194
e 121 200
e 121 203
e 122 137
e 122 167
e 123 140
e 123 155
e 123 181
e 123 195
e 123 197
e 124 129
e 124 169
e 124 201
e 124 203
e 125 142
e 125 149
e 125 151
e 125 168
e 125 170
e 125 172
e 125 175
e 125 190
e 125 196
e 125 199
e 126 141
e 126 181
e 126 193
e 126 195
e 127 131
e 127 134
e 127 148
e 127 151
e 127 167
e 127 197
e 128 145
e 128 148
e 128 159
e 128 162
e 128 201
e 129 172
e 129 174
e 129 178
e 130 173
e 130 198
e 131 166
e 131 167
e 131 179
e 132 136
e 132 139
e 132 141
e 132 150
e 132 160
e 132 164
e 132 169
e 133 158
e 133 186
e 133 188
e 134 154
e 134 175
e 134 177
e 134 195
e 135 163
e 135 176
e 135 197
e 136 154
e 136 170
e 136 174
e 136 178
e 136 186
e 136 189
e 137 148
e 137 155
e 137 175
e 138 190
e 138 196
e 139 141
e 139 195
e 140 168
e 140 170
e 140 177
e 140 182
e 140 196
e 141 183
e 142 158
e 142 161
e 142 190
e 143 148
e 143 153
e 143 176
e 143 183
e 144 178
e 145 147
e 145 162
e 145 174
e 145 180
e 146 147
e 146 159
e 146 169
e 148 153
e 148 164
e 148 189
e 148 191
e 149 158
e 149 160
e 149 167
e 149 181
e 149 184
e 149 190
e 150 152
e 150 160
e 151 161
e 151 202
e 152 154
e 152 169
e 152 185
e 153 165
e 153 170
e 153 176
e 153 187
e 154 160
e 154 161
e 154 181
e 154 186
e 154 201
e 155 179
e 155 198
e 157 171
e 157 180
e 157 199
e 158 163
e 159 173
e 159 178
e 159 186
e 160 172
e 160 193
e 160 202
e 160 203
e 161 163
e 161 166
e 161 182
e 162 172
e 162 203
e 163 177
e 163 189
e 163 194
e 163 196
e 163 200
e 164 173
e 164 177
e 164 185
e 165 181
e 165 199
e 167 173
e 167 197
e 168 180
e 168 201
e 169 173
e 169 181
e 169 198
e 171 187
e 171 203
e 172 173
e 172 184
e 173 178
e 173 180
e 175 183
e 175 184
e 175 188
e 176 203
e 177 188
e 177 189
e 179 189
e 179 200
e 180 189
e 180 190
e 180 198
e 181 183
e 181 198
e 182 193
e 182 200
e 186 195
e 188 202
e 189 201
e 190 192
e 190 193
e 193 196
e 194 203
